p edge 5812 1956
e 112 211
e 112 121
e 113 131
e 113 311
e 114 141
e 114 411
e 115 511
e 115 151
e 116 512
e 116 161
e 117 171
e 117 513
e 118 181
e 118 514
e 119 515
e 119 182
e 1110 516
e 1110 183
e 1111 184
e 1111 517
e 121 211
e 121 112
e 122 221
e 122 131
e 122 113
e 122 212
e 123 141
e 123 213
e 123 321
e 123 114
e 124 214
e 124 421
e 124 115
e 124 151
e 125 116
e 125 161
e 125 215
e 125 521
e 126 171
e 126 117
e 126 216
e 126 522
e 127 523
e 127 118
e 127 217
e 127 181
e 128 119
e 128 524
e 128 218
e 128 182
e 129 219
e 129 1110
e 129 525
e 129 183
e 1210 526
e 1210 1111
e 1210 184
e 1210 2110
e 1211 527
e 1211 2111
e 1211 185
e 131 311
e 131 113
e 132 141
e 132 231
e 132 114
e 132 312
e 133 151
e 133 313
e 133 115
e 133 331
e 134 116
e 134 431
e 134 314
e 134 161
e 135 171
e 135 315
e 135 531
e 135 117
e 136 532
e 136 316
e 136 181
e 136 118
e 137 119
e 137 533
e 137 182
e 137 317
e 138 318
e 138 1110
e 138 534
e 138 183
e 139 535
e 139 319
e 139 184
e 139 1111
e 1310 1211
e 1310 185
e 1310 536
e 1310 3110
e 1311 186
e 1311 3111
e 1311 537
e 141 411
e 141 114
e 142 412
e 142 115
e 142 241
e 142 151
e 143 413
e 143 116
e 143 161
e 143 341
e 144 441
e 144 171
e 144 117
e 144 414
e 145 541
e 145 118
e 145 415
e 145 181
e 146 119
e 146 542
e 146 416
e 146 182
e 147 183
e 147 1110
e 147 417
e 147 543
e 148 544
e 148 418
e 148 184
e 148 1111
e 149 1211
e 149 419
e 149 545
e 149 185
e 1410 4110
e 1410 186
e 1410 1311
e 1410 546
e 1411 4111
e 1411 187
e 1411 547
e 151 115
e 151 511
e 152 512
e 152 116
e 152 251
e 152 161
e 153 513
e 153 351
e 153 171
e 153 117
e 154 514
e 154 181
e 154 451
e 154 118
e 155 119
e 155 551
e 155 515
e 155 182
e 156 516
e 156 183
e 156 1110
e 156 552
e 157 553
e 157 1111
e 157 517
e 157 184
e 158 1211
e 158 554
e 158 185
e 158 518
e 159 1311
e 159 555
e 159 186
e 159 519
e 1510 5110
e 1510 1411
e 1510 187
e 1510 556
e 1511 5111
e 1511 557
e 1511 188
e 161 116
e 161 521
e 162 171
e 162 117
e 162 261
e 162 522
e 163 361
e 163 118
e 163 523
e 163 181
e 164 119
e 164 182
e 164 524
e 164 461
e 165 525
e 165 1110
e 165 183
e 165 561
e 166 526
e 166 562
e 166 1111
e 166 184
e 167 527
e 167 563
e 167 185
e 167 1211
e 168 1311
e 168 186
e 168 564
e 168 528
e 169 565
e 169 1411
e 169 187
e 169 529
e 1610 1511
e 1610 566
e 1610 5210
e 1610 188
e 1611 189
e 1611 5211
e 1611 567
e 171 117
e 171 531
e 172 271
e 172 118
e 172 181
e 172 532
e 173 119
e 173 371
e 173 533
e 173 182
e 174 471
e 174 534
e 174 183
e 174 1110
e 175 535
e 175 184
e 175 1111
e 175 571
e 176 1211
e 176 185
e 176 536
e 176 572
e 177 1311
e 177 186
e 177 573
e 177 537
e 178 538
e 178 1411
e 178 187
e 178 574
e 179 575
e 179 1511
e 179 539
e 179 188
e 1710 576
e 1710 189
e 1710 1611
e 1710 5310
e 1711 1810
e 1711 5311
e 1711 577
e 181 118
e 181 541
e 182 119
e 182 281
e 182 542
e 183 381
e 183 1110
e 183 543
e 184 481
e 184 1111
e 184 544
e 185 545
e 185 581
e 185 1211
e 186 1311
e 186 582
e 186 546
e 187 583
e 187 547
e 187 1411
e 188 548
e 188 584
e 188 1511
e 189 549
e 189 1611
e 189 585
e 1810 5410
e 1810 1711
e 1810 586
e 1811 587
e 1811 5411
e 211 121
e 211 112
e 212 311
e 212 122
e 212 221
e 212 113
e 213 123
e 213 231
e 213 411
e 213 114
e 214 115
e 214 241
e 214 511
e 214 124
e 215 116
e 215 512
e 215 125
e 215 251
e 216 117
e 216 261
e 216 126
e 216 513
e 217 271
e 217 118
e 217 127
e 217 514
e 218 119
e 218 128
e 218 515
e 218 281
e 219 516
e 219 129
e 219 1110
e 219 282
e 2110 1210
e 2110 517
e 2110 1111
e 2110 283
e 2111 1211
e 2111 284
e 2111 518
e 221 131
e 221 212
e 221 311
e 221 122
e 222 321
e 222 123
e 222 213
e 222 312
e 222 132
e 222 231
e 223 214
e 223 313
e 223 421
e 223 124
e 223 241
e 223 133
e 224 215
e 224 134
e 224 521
e 224 125
e 224 314
e 224 251
e 225 315
e 225 216
e 225 135
e 225 522
e 225 126
e 225 261
e 226 127
e 226 217
e 226 271
e 226 316
e 226 136
e 226 523
e 227 524
e 227 137
e 227 128
e 227 281
e 227 317
e 227 218
e 228 129
e 228 138
e 228 318
e 228 219
e 228 282
e 228 525
e 229 283
e 229 319
e 229 139
e 229 2110
e 229 526
e 229 1210
e 2210 527
e 2210 1310
e 2210 2111
e 2210 1211
e 2210 284
e 2210 3110
e 2211 285
e 2211 528
e 2211 3111
e 2211 1311
e 231 141
e 231 411
e 231 213
e 231 132
e 232 214
e 232 133
e 232 241
e 232 412
e 232 331
e 232 142
e 233 413
e 233 431
e 233 215
e 233 134
e 233 251
e 233 143
e 234 144
e 234 414
e 234 216
e 234 261
e 234 531
e 234 135
e 235 145
e 235 217
e 235 532
e 235 415
e 235 271
e 235 136
e 236 533
e 236 146
e 236 137
e 236 281
e 236 416
e 236 218
e 237 138
e 237 282
e 237 534
e 237 219
e 237 147
e 237 417
e 238 283
e 238 418
e 238 139
e 238 2110
e 238 535
e 238 148
e 239 2111
e 239 419
e 239 1310
e 239 149
e 239 536
e 239 284
e 2310 537
e 2310 285
e 2310 1410
e 2310 2211
e 2310 4110
e 2310 1311
e 2311 4111
e 2311 1411
e 2311 286
e 2311 538
e 241 214
e 241 151
e 241 142
e 241 511
e 242 512
e 242 215
e 242 152
e 242 341
e 242 251
e 242 143
e 243 144
e 243 153
e 243 216
e 243 513
e 243 441
e 243 261
e 244 145
e 244 217
e 244 514
e 244 271
e 244 154
e 244 541
e 245 542
e 245 146
e 245 155
e 245 281
e 245 515
e 245 218
e 246 156
e 246 282
e 246 543
e 246 219
e 246 147
e 246 516
e 247 283
e 247 157
e 247 544
e 247 2110
e 247 148
e 247 517
e 248 545
e 248 2111
e 248 518
e 248 149
e 248 158
e 248 284
e 249 546
e 249 285
e 249 1410
e 249 2211
e 249 159
e 249 519
e 2410 2311
e 2410 1411
e 2410 286
e 2410 1510
e 2410 547
e 2410 5110
e 2411 5111
e 2411 287
e 2411 548
e 2411 1511
e 251 152
e 251 215
e 251 161
e 251 521
e 252 153
e 252 351
e 252 216
e 252 162
e 252 522
e 252 261
e 253 163
e 253 217
e 253 451
e 253 271
e 253 154
e 253 523
e 254 164
e 254 155
e 254 551
e 254 281
e 254 524
e 254 218
e 255 552
e 255 282
e 255 219
e 255 525
e 255 156
e 255 165
e 256 283
e 256 166
e 256 157
e 256 2110
e 256 526
e 256 553
e 257 527
e 257 2111
e 257 158
e 257 167
e 257 554
e 257 284
e 258 528
e 258 285
e 258 2211
e 258 555
e 258 159
e 258 168
e 259 2311
e 259 286
e 259 529
e 259 556
e 259 1510
e 259 169
e 2510 557
e 2510 1610
e 2510 1511
e 2510 5210
e 2510 2411
e 2510 287
e 2511 1611
e 2511 558
e 2511 5211
e 2511 288
e 261 216
e 261 162
e 261 531
e 261 171
e 262 163
e 262 271
e 262 361
e 262 532
e 262 172
e 262 217
e 263 533
e 263 461
e 263 164
e 263 281
e 263 218
e 263 173
e 264 174
e 264 282
e 264 219
e 264 561
e 264 165
e 264 534
e 265 166
e 265 283
e 265 2110
e 265 175
e 265 562
e 265 535
e 266 563
e 266 2111
e 266 167
e 266 536
e 266 176
e 266 284
e 267 537
e 267 564
e 267 285
e 267 168
e 267 2211
e 267 177
e 268 538
e 268 286
e 268 178
e 268 565
e 268 2311
e 268 169
e 269 1610
e 269 539
e 269 287
e 269 566
e 269 2411
e 269 179
e 2610 5310
e 2610 1611
e 2610 1710
e 2610 288
e 2610 567
e 2610 2511
e 2611 5311
e 2611 1711
e 2611 289
e 2611 568
e 271 181
e 271 541
e 271 217
e 271 172
e 272 542
e 272 173
e 272 281
e 272 371
e 272 182
e 272 218
e 273 174
e 273 282
e 273 543
e 273 219
e 273 183
e 273 471
e 274 175
e 274 283
e 274 544
e 274 2110
e 274 571
e 274 184
e 275 545
e 275 2111
e 275 185
e 275 572
e 275 176
e 275 284
e 276 546
e 276 573
e 276 285
e 276 186
e 276 2211
e 276 177
e 277 574
e 277 286
e 277 178
e 277 2311
e 277 547
e 277 187
e 278 188
e 278 179
e 278 287
e 278 575
e 278 548
e 278 2411
e 279 189
e 279 576
e 279 549
e 279 1710
e 279 288
e 279 2511
e 2710 577
e 2710 2611
e 2710 1711
e 2710 1810
e 2710 289
e 2710 5410
e 2711 2810
e 2711 578
e 2711 1811
e 2711 5411
e 281 182
e 281 551
e 281 218
e 282 219
e 282 381
e 282 552
e 282 183
e 283 481
e 283 2110
e 283 553
e 283 184
e 284 185
e 284 581
e 284 2111
e 284 554
e 285 582
e 285 186
e 285 2211
e 285 555
e 286 556
e 286 2311
e 286 187
e 286 583
e 287 557
e 287 2411
e 287 584
e 287 188
e 288 585
e 288 558
e 288 189
e 288 2511
e 289 1810
e 289 2611
e 289 559
e 289 586
e 2810 2711
e 2810 5510
e 2810 587
e 2810 1811
e 2811 5511
e 2811 588
e 311 131
e 311 113
e 312 411
e 312 132
e 312 321
e 312 114
e 313 511
e 313 115
e 313 331
e 313 133
e 314 134
e 314 116
e 314 512
e 314 341
e 315 513
e 315 351
e 315 135
e 315 117
e 316 361
e 316 514
e 316 118
e 316 136
e 317 119
e 317 371
e 317 137
e 317 515
e 318 1110
e 318 381
e 318 516
e 318 138
e 319 139
e 319 517
e 319 382
e 319 1111
e 3110 383
e 3110 1310
e 3110 2111
e 3110 518
e 3111 384
e 3111 519
e 3111 1311
e 321 141
e 321 123
e 321 411
e 321 312
e 322 421
e 322 313
e 322 124
e 322 412
e 322 331
e 322 142
e 323 413
e 323 314
e 323 341
e 323 521
e 323 125
e 323 143
e 324 144
e 324 351
e 324 414
e 324 315
e 324 522
e 324 126
e 325 127
e 325 361
e 325 415
e 325 145
e 325 316
e 325 523
e 326 524
e 326 146
e 326 128
e 326 317
e 326 371
e 326 416
e 327 129
e 327 318
e 327 525
e 327 147
e 327 381
e 327 417
e 328 382
e 328 418
e 328 319
e 328 1210
e 328 526
e 328 148
e 329 527
e 329 1211
e 329 383
e 329 419
e 329 149
e 329 3110
e 3210 528
e 3210 1410
e 3210 384
e 3210 4110
e 3210 3111
e 3210 2211
e 3211 4111
e 3211 1411
e 3211 385
e 3211 529
e 331 133
e 331 313
e 331 151
e 331 511
e 332 512
e 332 431
e 332 314
e 332 152
e 332 134
e 332 341
e 333 351
e 333 153
e 333 315
e 333 531
e 333 513
e 333 135
e 334 361
e 334 532
e 334 514
e 334 136
e 334 316
e 334 154
e 335 533
e 335 155
e 335 137
e 335 317
e 335 515
e 335 371
e 336 138
e 336 318
e 336 534
e 336 156
e 336 381
e 336 516
e 337 382
e 337 319
e 337 139
e 337 517
e 337 535
e 337 157
e 338 1310
e 338 383
e 338 518
e 338 536
e 338 158
e 338 3110
e 339 537
e 339 159
e 339 384
e 339 3111
e 339 1311
e 339 519
e 3310 538
e 3310 2311
e 3310 1510
e 3310 385
e 3310 5110
e 3310 3211
e 3311 5111
e 3311 386
e 3311 539
e 3311 1511
e 341 143
e 341 314
e 341 161
e 341 521
e 342 144
e 342 351
e 342 162
e 342 522
e 342 441
e 342 315
e 343 163
e 343 361
e 343 541
e 343 145
e 343 316
e 343 523
e 344 524
e 344 146
e 344 164
e 344 542
e 344 317
e 344 371
e 345 318
e 345 543
e 345 525
e 345 147
e 345 381
e 345 165
e 346 382
e 346 319
e 346 166
e 346 544
e 346 526
e 346 148
e 347 527
e 347 545
e 347 167
e 347 149
e 347 383
e 347 3110
e 348 546
e 348 528
e 348 168
e 348 3111
e 348 1410
e 348 384
e 349 1411
e 349 529
e 349 547
e 349 169
e 349 385
e 349 3211
e 3410 1610
e 3410 3311
e 3410 5210
e 3410 386
e 3410 548
e 3410 2411
e 3411 1611
e 3411 5211
e 3411 549
e 3411 387
e 351 153
e 351 531
e 351 315
e 351 171
e 352 361
e 352 451
e 352 532
e 352 172
e 352 316
e 352 154
e 353 533
e 353 155
e 353 551
e 353 317
e 353 371
e 353 173
e 354 174
e 354 318
e 354 552
e 354 156
e 354 381
e 354 534
e 355 382
e 355 319
e 355 175
e 355 157
e 355 535
e 355 553
e 356 554
e 356 383
e 356 536
e 356 158
e 356 176
e 356 3110
e 357 555
e 357 537
e 357 177
e 357 3111
e 357 159
e 357 384
e 358 538
e 358 178
e 358 1510
e 358 556
e 358 385
e 358 3211
e 359 557
e 359 179
e 359 1511
e 359 539
e 359 3311
e 359 386
e 3510 387
e 3510 5310
e 3510 3411
e 3510 1710
e 3510 558
e 3510 2511
e 3511 388
e 3511 5311
e 3511 1711
e 3511 559
e 361 181
e 361 316
e 361 541
e 361 163
e 362 542
e 362 461
e 362 164
e 362 317
e 362 371
e 362 182
e 363 318
e 363 543
e 363 561
e 363 183
e 363 381
e 363 165
e 364 166
e 364 319
e 364 382
e 364 544
e 364 562
e 364 184
e 365 545
e 365 563
e 365 185
e 365 383
e 365 167
e 365 3110
e 366 384
e 366 564
e 366 546
e 366 168
e 366 3111
e 366 186
e 367 565
e 367 547
e 367 169
e 367 385
e 367 187
e 367 3211
e 368 188
e 368 1610
e 368 3311
e 368 566
e 368 548
e 368 386
e 369 387
e 369 3411
e 369 189
e 369 549
e 369 1611
e 369 567
e 3610 568
e 3610 2611
e 3610 388
e 3610 1810
e 3610 3511
e 3610 5410
e 3611 389
e 3611 569
e 3611 1811
e 3611 5411
e 371 317
e 371 551
e 371 173
e 371 281
e 372 174
e 372 282
e 372 318
e 372 552
e 372 381
e 372 471
e 373 283
e 373 319
e 373 382
e 373 175
e 373 571
e 373 553
e 374 383
e 374 572
e 374 554
e 374 284
e 374 176
e 374 3110
e 375 573
e 375 285
e 375 384
e 375 3111
e 375 555
e 375 177
e 376 574
e 376 286
e 376 556
e 376 178
e 376 385
e 376 3211
e 377 557
e 377 179
e 377 3311
e 377 287
e 377 575
e 377 386
e 378 387
e 378 3411
e 378 576
e 378 288
e 378 558
e 378 1710
e 379 577
e 379 289
e 379 388
e 379 1711
e 379 559
e 379 3511
e 3710 3611
e 3710 5510
e 3710 2711
e 3710 389
e 3710 2810
e 3710 578
e 3711 579
e 3711 2811
e 3711 3810
e 3711 5511
e 381 318
e 381 561
e 381 183
e 382 481
e 382 562
e 382 319
e 382 184
e 383 563
e 383 581
e 383 3110
e 383 185
e 384 3111
e 384 582
e 384 186
e 384 564
e 385 3211
e 385 583
e 385 187
e 385 565
e 386 188
e 386 3311
e 386 584
e 386 566
e 387 3411
e 387 567
e 387 585
e 387 189
e 388 1810
e 388 568
e 388 586
e 388 3511
e 389 3611
e 389 587
e 389 569
e 389 1811
e 3810 5610
e 3810 2811
e 3810 588
e 3810 3711
e 3811 5611
e 3811 589
e 411 141
e 411 114
e 412 421
e 412 115
e 412 511
e 412 142
e 413 116
e 413 143
e 413 512
e 413 431
e 414 513
e 414 144
e 414 441
e 414 117
e 415 451
e 415 118
e 415 145
e 415 514
e 416 119
e 416 146
e 416 515
e 416 461
e 417 471
e 417 1110
e 417 516
e 417 147
e 418 481
e 418 517
e 418 148
e 418 1111
e 419 149
e 419 482
e 419 2111
e 419 518
e 4110 483
e 4110 3111
e 4110 519
e 4110 1410
e 4111 5110
e 4111 1411
e 4111 484
e 421 412
e 421 151
e 421 124
e 421 511
e 422 512
e 422 413
e 422 152
e 422 521
e 422 125
e 422 431
e 423 153
e 423 414
e 423 522
e 423 513
e 423 441
e 423 126
e 424 127
e 424 451
e 424 514
e 424 415
e 424 154
e 424 523
e 425 524
e 425 461
e 425 155
e 425 128
e 425 515
e 425 416
e 426 129
e 426 156
e 426 417
e 426 516
e 426 525
e 426 471
e 427 418
e 427 1210
e 427 481
e 427 526
e 427 157
e 427 517
e 428 527
e 428 419
e 428 482
e 428 1211
e 428 518
e 428 158
e 429 483
e 429 528
e 429 2211
e 429 4110
e 429 159
e 429 519
e 4210 529
e 4210 1510
e 4210 4111
e 4210 5110
e 4210 484
e 4210 3211
e 4211 5210
e 4211 5111
e 4211 485
e 4211 1511
e 431 134
e 431 413
e 431 161
e 431 521
e 432 414
e 432 162
e 432 531
e 432 441
e 432 135
e 432 522
e 433 163
e 433 451
e 433 415
e 433 532
e 433 136
e 433 523
e 434 533
e 434 461
e 434 137
e 434 164
e 434 524
e 434 416
e 435 138
e 435 417
e 435 525
e 435 534
e 435 165
e 435 471
e 436 166
e 436 418
e 436 139
e 436 481
e 436 535
e 436 526
e 437 527
e 437 1310
e 437 167
e 437 419
e 437 482
e 437 536
e 438 483
e 438 537
e 438 528
e 438 168
e 438 4110
e 438 1311
e 439 538
e 439 529
e 439 2311
e 439 4111
e 439 484
e 439 169
e 4310 4211
e 4310 3311
e 4310 539
e 4310 5210
e 4310 485
e 4310 1610
e 4311 1611
e 4311 5211
e 4311 486
e 4311 5310
e 441 144
e 441 414
e 441 531
e 441 171
e 442 532
e 442 145
e 442 451
e 442 415
e 442 172
e 442 541
e 443 542
e 443 461
e 443 173
e 443 533
e 443 416
e 443 146
e 444 174
e 444 417
e 444 543
e 444 534
e 444 147
e 444 471
e 445 175
e 445 418
e 445 544
e 445 535
e 445 148
e 445 481
e 446 545
e 446 419
e 446 482
e 446 149
e 446 536
e 446 176
e 447 483
e 447 546
e 447 537
e 447 177
e 447 4110
e 447 1410
e 448 538
e 448 1411
e 448 178
e 448 547
e 448 4111
e 448 484
e 449 4211
e 449 539
e 449 548
e 449 485
e 449 2411
e 449 179
e 4410 5310
e 4410 4311
e 4410 3411
e 4410 486
e 4410 549
e 4410 1710
e 4411 487
e 4411 5311
e 4411 1711
e 4411 5410
e 451 181
e 451 154
e 451 541
e 451 415
e 452 542
e 452 155
e 452 461
e 452 551
e 452 416
e 452 182
e 453 156
e 453 417
e 453 543
e 453 183
e 453 552
e 453 471
e 454 418
e 454 184
e 454 157
e 454 481
e 454 553
e 454 544
e 455 545
e 455 158
e 455 185
e 455 419
e 455 482
e 455 554
e 456 483
e 456 546
e 456 555
e 456 4110
e 456 159
e 456 186
e 457 556
e 457 1510
e 457 547
e 457 4111
e 457 187
e 457 484
e 458 557
e 458 4211
e 458 188
e 458 1511
e 458 485
e 458 548
e 459 4311
e 459 189
e 459 486
e 459 549
e 459 558
e 459 2511
e 4510 487
e 4510 1810
e 4510 3511
e 4510 5410
e 4510 559
e 4510 4411
e 4511 488
e 4511 5510
e 4511 1811
e 4511 5411
e 461 164
e 461 551
e 461 416
e 461 281
e 462 552
e 462 282
e 462 471
e 462 561
e 462 165
e 462 417
e 463 283
e 463 418
e 463 166
e 463 481
e 463 562
e 463 553
e 464 563
e 464 167
e 464 419
e 464 482
e 464 554
e 464 284
e 465 483
e 465 564
e 465 285
e 465 168
e 465 4110
e 465 555
e 466 286
e 466 556
e 466 565
e 466 4111
e 466 484
e 466 169
e 467 557
e 467 4211
e 467 566
e 467 485
e 467 287
e 467 1610
e 468 4311
e 468 1611
e 468 486
e 468 288
e 468 558
e 468 567
e 469 568
e 469 487
e 469 2611
e 469 289
e 469 559
e 469 4411
e 4610 488
e 4610 3611
e 4610 569
e 4610 5510
e 4610 2810
e 4610 4511
e 4611 2811
e 4611 5610
e 4611 489
e 4611 5511
e 471 417
e 471 561
e 471 174
e 471 381
e 472 175
e 472 418
e 472 382
e 472 481
e 472 571
e 472 562
e 473 563
e 473 383
e 473 419
e 473 482
e 473 572
e 473 176
e 474 483
e 474 573
e 474 564
e 474 384
e 474 4110
e 474 177
e 475 574
e 475 178
e 475 565
e 475 385
e 475 4111
e 475 484
e 476 179
e 476 566
e 476 575
e 476 485
e 476 386
e 476 4211
e 477 387
e 477 4311
e 477 576
e 477 486
e 477 567
e 477 1710
e 478 568
e 478 487
e 478 388
e 478 1711
e 478 577
e 478 4411
e 479 488
e 479 389
e 479 569
e 479 2711
e 479 4511
e 479 578
e 4710 5610
e 4710 3810
e 4710 4611
e 4710 489
e 4710 579
e 4710 3711
e 4711 5611
e 4711 3811
e 4711 5710
e 4711 4810
e 481 571
e 481 418
e 481 184
e 482 185
e 482 581
e 482 572
e 482 419
e 483 582
e 483 4110
e 483 186
e 483 573
e 484 574
e 484 4111
e 484 187
e 484 583
e 485 584
e 485 4211
e 485 575
e 485 188
e 486 585
e 486 189
e 486 4311
e 486 576
e 487 586
e 487 1810
e 487 577
e 487 4411
e 488 4511
e 488 578
e 488 587
e 488 1811
e 489 579
e 489 4611
e 489 588
e 489 2811
e 4810 3811
e 4810 589
e 4810 5710
e 4810 4711
e 4811 5810
e 4811 5711
e 511 151
e 511 115
e 512 152
e 512 116
e 512 521
e 513 531
e 513 117
e 513 153
e 514 541
e 514 154
e 514 118
e 515 119
e 515 551
e 515 155
e 516 156
e 516 561
e 516 1110
e 517 571
e 517 1111
e 517 157
e 518 581
e 518 2111
e 518 158
e 519 3111
e 519 582
e 519 159
e 5110 1510
e 5110 583
e 5110 4111
e 5111 584
e 5111 1511
e 521 512
e 521 125
e 521 161
e 522 126
e 522 513
e 522 531
e 522 162
e 523 163
e 523 514
e 523 127
e 523 541
e 524 551
e 524 164
e 524 128
e 524 515
e 525 516
e 525 129
e 525 165
e 525 561
e 526 571
e 526 517
e 526 1210
e 526 166
e 527 167
e 527 581
e 527 518
e 527 1211
e 528 582
e 528 168
e 528 2211
e 528 519
e 529 3211
e 529 5110
e 529 583
e 529 169
e 5210 5111
e 5210 584
e 5210 4211
e 5210 1610
e 5211 1611
e 5211 585
e 531 513
e 531 135
e 531 171
e 532 514
e 532 136
e 532 541
e 532 172
e 533 551
e 533 137
e 533 173
e 533 515
e 534 138
e 534 174
e 534 561
e 534 516
e 535 139
e 535 517
e 535 571
e 535 175
e 536 581
e 536 1310
e 536 176
e 536 518
e 537 1311
e 537 582
e 537 177
e 537 519
e 538 178
e 538 583
e 538 5110
e 538 2311
e 539 3311
e 539 5111
e 539 584
e 539 179
e 5310 585
e 5310 4311
e 5310 5211
e 5310 1710
e 5311 586
e 5311 1711
e 541 181
e 541 514
e 541 145
e 542 146
e 542 551
e 542 515
e 542 182
e 543 147
e 543 561
e 543 516
e 543 183
e 544 517
e 544 148
e 544 571
e 544 184
e 545 185
e 545 149
e 545 581
e 545 518
e 546 582
e 546 186
e 546 1410
e 546 519
e 547 5110
e 547 583
e 547 187
e 547 1411
e 548 5111
e 548 584
e 548 2411
e 548 188
e 549 189
e 549 3411
e 549 585
e 549 5211
e 5410 5311
e 5410 1810
e 5410 586
e 5410 4411
e 5411 587
e 5411 1811
e 551 155
e 551 515
e 551 281
e 552 282
e 552 156
e 552 561
e 552 516
e 553 283
e 553 517
e 553 571
e 553 157
e 554 581
e 554 284
e 554 158
e 554 518
e 555 582
e 555 159
e 555 285
e 555 519
e 556 1510
e 556 5110
e 556 286
e 556 583
e 557 5111
e 557 584
e 557 287
e 557 1511
e 558 585
e 558 5211
e 558 2511
e 558 288
e 559 3511
e 559 5311
e 559 586
e 559 289
e 5510 2810
e 5510 4511
e 5510 587
e 5510 5411
e 5511 2811
e 5511 588
e 561 165
e 561 516
e 561 381
e 562 166
e 562 517
e 562 571
e 562 382
e 563 383
e 563 581
e 563 518
e 563 167
e 564 168
e 564 582
e 564 384
e 564 519
e 565 169
e 565 5110
e 565 583
e 565 385
e 566 5111
e 566 1610
e 566 584
e 566 386
e 567 387
e 567 5211
e 567 1611
e 567 585
e 568 5311
e 568 388
e 568 2611
e 568 586
e 569 3611
e 569 587
e 569 389
e 569 5411
e 5610 4611
e 5610 5511
e 5610 588
e 5610 3810
e 5611 3811
e 5611 589
e 571 517
e 571 481
e 571 175
e 572 581
e 572 176
e 572 482
e 572 518
e 573 582
e 573 483
e 573 177
e 573 519
e 574 178
e 574 5110
e 574 484
e 574 583
e 575 485
e 575 5111
e 575 584
e 575 179
e 576 585
e 576 486
e 576 5211
e 576 1710
e 577 5311
e 577 1711
e 577 586
e 577 487
e 578 488
e 578 2711
e 578 587
e 578 5411
e 579 5511
e 579 588
e 579 489
e 579 3711
e 5710 5611
e 5710 589
e 5710 4711
e 5710 4810
e 5711 5810
e 5711 4811
e 581 185
e 581 518
e 582 186
e 582 519
e 583 5110
e 583 187
e 584 5111
e 584 188
e 585 189
e 585 5211
e 586 5311
e 586 1810
e 587 5411
e 587 1811
e 588 2811
e 588 5511
e 589 3811
e 589 5611
e 5810 4811
e 5810 5711
